000 000 000 000 000 000 000 -99 -99 -99 -99 -99 000 000 000 -99 -99 -99 -99 -99 -99 -99 -99 000 000 000 -99 -99 -99 -99 000
000 000 000 000 000 000 000 -99 -99 -99 -99 -99 -99 000 000 000 -99 000 -99 000 000 000 000 000 000 000 -99 -99 -99 -99 -99
-99 000 000 000 000 -99 -99 -99 -99 -99 -99 -99 000 -99 000 000 000 000 000 -99 000 000 000 000 000 000 000 000 -99 -99 -99
-99 -99 -99 000 000 -99 -99 -99 000 -99 -99 000 000 -99 000 -99 -99 000 000 000 000 000 000 000 000 000 000 000 -99 -99 -99
000 -99 -99 000 000 000 000 000 000 000 -99 000 000 000 -99 000 -99 000 000 -99 000 000 000 000 000 001 001 000 000 -99 -99
000 000 -99 000 000 -99 000 000 000 000 -99 000 000 000 -99 -99 000 000 -99 -99 000 000 000 000 001 005 007 001 000 -99 -99
000 000 000 000 000 -99 -99 000 000 000 000 000 000 000 000 -99 000 000 -99 000 000 000 000 000 001 007 026 006 001 -99 -99
000 000 000 000 000 -99 -99 000 000 000 000 000 000 000 -99 -99 000 000 000 -99 000 000 000 000 001 009 030 011 002 -99 -99
000 000 000 000 000 -99 -99 000 000 000 000 -99 -99 -99 -99 -99 000 000 000 -99 000 000 000 000 001 006 013 005 001 000 -99
000 000 000 000 000 000 -99 -99 000 000 000 -99 -99 -99 000 -99 000 000 000 000 000 000 000 -99 000 001 002 002 001 000 -99
000 000 000 000 000 -99 000 000 000 000 000 000 -99 -99 -99 000 -99 -99 000 -99 -99 -99 000 -99 000 000 000 000 000 000 -99
000 000 000 000 000 000 000 000 000 000 000 000 000 -99 -99 -99 -99 -99 000 000 -99 -99 -99 000 000 000 001 000 000 000 -99
000 000 000 000 000 000 000 000 000 000 000 000 000 -99 -99 -99 -99 -99 000 -99 -99 -99 -99 000 000 000 001 001 000 000 -99
000 000 -99 -99 000 000 000 000 000 -99 000 000 000 -99 -99 -99 -99 -99 -99 000 -99 -99 -99 000 000 000 000 000 000 000 -99
000 -99 000 -99 000 000 000 000 000 -99 -99 -99 000 000 -99 -99 -99 -99 000 -99 -99 -99 -99 000 000 000 000 000 000 000 -99
000 -99 -99 -99 000 000 000 000 000 -99 -99 -99 -99 -99 -99 -99 000 -99 000 -99 -99 000 000 000 000 000 000 000 000 -99 -99
-99 -99 -99 -99 000 000 000 000 000 -99 -99 -99 -99 -99 -99 -99 000 000 000 -99 -99 -99 000 000 000 000 000 000 000 000 -99
000 -99 -99 -99 -99 -99 -99 000 000 -99 -99 -99 -99 -99 -99 000 000 000 -99 -99 -99 -99 000 -99 000 000 000 000 000 000 -99
000 000 -99 -99 -99 -99 -99 000 000 -99 -99 -99 -99 -99 000 000 000 000 000 -99 -99 000 000 000 000 000 000 000 -99 000 -99
000 000 000 000 -99 -99 -99 000 000 -99 000 000 -99 -99 000 000 000 000 000 -99 -99 000 000 -99 -99 -99 -99 -99 -99 -99 -99
000 000 000 000 000 000 -99 000 000 -99 -99 -99 -99 -99 -99 000 000 000 000 000 000 000 000 -99 -99 -99 -99 -99 -99 -99 -99
000 000 000 000 000 000 -99 000 000 000 -99 -99 -99 -99 -99 000 000 000 000 000 000 000 000 -99 -99 -99 -99 -99 -99 -99 -99
000 000 000 000 000 000 -99 000 000 000 -99 -99 -99 -99 000 000 000 000 000 000 000 000 000 -99 -99 -99 -99 -99 -99 -99 -99
000 000 000 000 000 000 000 000 000 -99 -99 -99 -99 000 000 000 000 000 000 000 000 000 000 -99 -99 -99 -99 -99 -99 -99 000
000 000 000 000 000 000 000 000 000 -99 -99 -99 -99 000 000 000 000 000 000 000 000 000 000 -99 -99 -99 -99 -99 -99 -99 000
000 000 000 000 000 000 000 000 000 000 -99 -99 000 000 000 000 000 000 -99 000 000 000 -99 -99 -99 -99 -99 -99 -99 -99 000
000 000 000 000 000 000 000 000 000 000 -99 -99 -99 000 000 000 000 000 000 000 000 000 000 -99 -99 -99 -99 -99 -99 -99 000
000 000 000 000 000 000 000 000 000 -99 -99 -99 -99 -99 000 000 000 000 000 000 000 000 000 -99 -99 -99 -99 -99 -99 -99 000
000 000 000 000 000 000 000 000 000 000 -99 -99 -99 000 000 000 000 000 000 000 000 000 -99 -99 -99 -99 -99 -99 -99 -99 000
000 000 000 000 000 000 000 000 000 000 000 -99 -99 -99 000 000 000 000 000 000 000 000 -99 -99 -99 -99 -99 -99 -99 -99 -99
000 000 000 000 000 000 000 000 000 000 000 -99 -99 -99 000 000 000 000 000 000 000 000 -99 -99 -99 -99 -99 -99 -99 -99 000
000 000 000 000 000 000 000 000 000 -99 -99 -99 -99 000 000 000 000 000 000 -99 -99 -99 000 000 000 000 -99 -99 -99 -99 000
000 000 000 000 000 000 000 000 000 000 000 -99 -99 -99 000 000 000 000 -99 -99 -99 -99 000 000 000 000 -99 000 000 000 001
000 -99 000 000 000 000 000 000 -99 000 -99 -99 -99 000 000 000 000 000 -99 -99 -99 000 000 000 000 000 000 000 000 000 001
000 000 000 000 000 000 000 000 000 000 000 -99 000 000 000 000 000 000 -99 000 000 000 000 000 000 000 000 000 000 000 001
000 000 -99 000 000 000 000 000 000 000 000 000 000 000 000 000 000 000 000 000 000 000 000 000 000 000 000 000 000 000 000
000 000 -99 000 000 -99 -99 000 000 000 000 000 000 000 000 000 000 -99 000 000 000 000 000 000 000 000 000 000 000 000 000
000 -99 -99 000 000 000 -99 000 000 000 -99 -99 -99 000 000 000 000 000 000 000 000 000 000 000 000 000 000 000 000 000 000
-99 -99 -99 000 000 000 000 000 -99 -99 -99 -99 -99 000 000 000 000 000 -99 000 000 000 000 000 000 000 000 -99 000 000 000
000 000 000 000 000 -99 -99 -99 -99 -99 -99 -99 000 000 000 000 000 000 -99 -99 -99 -99 -99 000 000 000 000 -99 000 000 000
000 000 000 000 000 -99 -99 -99 -99 -99 -99 000 000 000 000 000 000 000 -99 000 -99 -99 -99 000 -99 -99 -99 -99 000 000 001
000 000 -99 000 -99 -99 -99 -99 -99 -99 000 000 000 000 000 -99 000 000 -99 000 -99 -99 -99 -99 -99 -99 -99 -99 000 000 001
000 000 -99 -99 -99 -99 -99 -99 -99 000 000 000 000 000 000 -99 000 000 000 000 -99 -99 -99 -99 -99 -99 -99 -99 000 000 000
000 -99 -99 -99 -99 -99 -99 -99 -99 -99 000 000 000 000 000 -99 000 000 000 000 -99 -99 -99 -99 -99 -99 -99 000 000 000 000
-99 -99 -99 -99 -99 -99 -99 -99 -99 -99 000 000 000 000 000 000 000 000 000 000 -99 -99 -99 -99 000 -99 -99 000 -99 -99 000
-99 -99 -99 -99 -99 -99 -99 -99 -99 -99 000 000 000 000 -99 -99 000 000 000 000 -99 -99 -99 -99 000 -99 -99 000 -99 -99 000
-99 -99 -99 -99 -99 -99 -99 -99 -99 -99 000 000 000 000 000 -99 -99 000 000 000 -99 -99 000 -99 -99 -99 000 -99 -99 -99 000
-99 -99 -99 -99 -99 -99 -99 -99 -99 -99 -99 000 000 000 000 -99 -99 000 000 -99 -99 000 000 000 -99 -99 -99 -99 000 -99 -99
-99 -99 -99 -99 -99 -99 -99 -99 -99 -99 -99 -99 -99 -99 -99 -99 -99 000 000 -99 -99 -99 000 -99 -99 -99 000 -99 000 000 -99
-99 -99 -99 -99 -99 -99 -99 -99 -99 -99 -99 -99 -99 -99 -99 -99 -99 000 000 -99 -99 000 -99 -99 -99 -99 000 -99 -99 -99 -99
-99 -99 -99 -99 -99 -99 -99 -99 -99 -99 -99 -99 -99 -99 -99 -99 -99 -99 -99 -99 -99 -99 -99 -99 -99 000 -99 -99 -99 -99 -99
-99 -99 -99 -99 -99 -99 -99 -99 -99 -99 -99 -99 -99 -99 -99 -99 -99 -99 -99 -99 -99 -99 -99 -99 -99 000 -99 -99 -99 -99 -99
-99 -99 -99 -99 -99 -99 -99 -99 -99 -99 -99 -99 000 000 000 000 000 -99 -99 -99 -99 -99 -99 -99 -99 -99 -99 -99 -99 -99 -99
-99 -99 -99 -99 -99 -99 -99 -99 -99 -99 000 000 000 000 000 000 000 000 -99 -99 -99 -99 -99 -99 -99 -99 -99 -99 -99 -99 -99
-99 -99 -99 -99 -99 -99 -99 000 000 000 000 000 000 000 001 000 000 000 -99 -99 -99 -99 -99 -99 -99 -99 -99 -99 -99 -99 -99
